;; sequence(s): A158409
;; terms: 899 1799 2699 3599 4499 5399 6299 7199 8099 8999 9899 10799 11699 12599 13499 14399 15299 16199 17099 17999
;; small program: loop(loop((2 + (2 + y)) * x, 2, x), 2, 1 + x) - 1
;; fast program: ((1 + x) * loop(((x * x) - x) * x, 1, 2 + (2 * (2 + 2)))) - 1
(set-logic UFNIA)
(declare-fun f1 (Int Int) Int)
(declare-fun g1 () Int)
(declare-fun h1 (Int) Int)
(declare-fun u1 (Int Int) Int)
(declare-fun v1 (Int) Int)
(declare-fun f0 (Int) Int)
(declare-fun g0 () Int)
(declare-fun h0 (Int) Int)
(declare-fun u0 (Int Int) Int)
(declare-fun v0 (Int) Int)
(declare-fun small (Int) Int)
(declare-fun f2 (Int) Int)
(declare-fun g2 () Int)
(declare-fun h2 () Int)
(declare-fun u2 (Int Int) Int)
(declare-fun v2 () Int)
(declare-fun fast (Int) Int)
(assert (forall ((x Int) (y Int)) (= (f1 x y) (* (+ 2 (+ 2 y)) x))))
(assert (= g1 2))
(assert (forall ((x Int)) (= (h1 x) x)))
(assert (forall ((x Int) (y Int)) (= (u1 x y) (ite (<= x 0) y (f1 (u1 (- x 1) y) x)))))
(assert (forall ((x Int)) (= (v1 x) (u1 g1 (h1 x)))))
(assert (forall ((x Int)) (= (f0 x) (v1 x))))
(assert (= g0 2))
(assert (forall ((x Int)) (= (h0 x) (+ 1 x))))
(assert (forall ((x Int) (y Int)) (= (u0 x y) (ite (<= x 0) y (f0 (u0 (- x 1) y))))))
(assert (forall ((x Int)) (= (v0 x) (u0 g0 (h0 x)))))
(assert (forall ((x Int)) (= (small x) (- (v0 x) 1))))
(assert (forall ((x Int)) (= (f2 x) (* (- (* x x) x) x))))
(assert (= g2 1))
(assert (= h2 (+ 2 (* 2 (+ 2 2)))))
(assert (forall ((x Int) (y Int)) (= (u2 x y) (ite (<= x 0) y (f2 (u2 (- x 1) y))))))
(assert (= v2 (u2 g2 h2)))
(assert (forall ((x Int)) (= (fast x) (- (* (+ 1 x) v2) 1))))
(assert (exists ((c Int)) (and (>= c 0) (not (= (small c) (fast c))))))
(check-sat)
